n = 50;
C = 267;
w = [398,241,472,328,252,399,286,55,306,258,418,357,243,125,284,237,22,104,138,472,484,246,178,184,177,442,353,66,464,361,43,153,489,163,411,111,457,320,26,80,313,417,152,381,238,59,483,74,449,230];
p = [398,241,472,328,252,399,286,55,306,258,418,357,243,125,284,237,22,104,138,472,484,246,178,184,177,442,353,66,464,361,43,153,489,163,411,111,457,320,26,80,313,417,152,381,238,59,483,74,449,230];
